
  17    4
  10   10   10   10

   0   0   0   0   0   4 2 3 5 7 
   1  10  10  10  10   2 6 4 
   8  10  10  10  10   5 16 15 12 11 10 
   3  10  10  10  10   3 16 9 8 
   1  10  10  10  10   4 15 12 11 10 
   9  10  10  10  10   3 15 12 10 
   4  10  10  10  10   3 16 15 10 
   9  10  10  10  10   3 15 14 11 
   8  10  10  10  10   3 15 14 13 
   9  10  10  10  10   2 14 13 
   2  10  10  10  10   1 13 
   1  10  10  10  10   1 13 
   6  10  10  10  10   1 17
   3  10  10  10  10   1 17
   5  10  10  10  10   1 17
   1  10  10  10  10   1 17
   0   0   0   0   0   0 
